265906
760802
266601
582830
969195
121248
127101
897114
526038
260281
10416
391186
562291
833262
410122
885241
747786
210142
658200
139271
135656
5407
238843
958003
183175
139381
14685
551679
9931
462381
157887
88667
91625
71897
636782
918775
496354
853224
108693
65192
958957
74145
901739
472502
112179
235324
309901
957184
836724
905821
408742
911308
500167
294254
383562
892847
48574
559192
373730
665941
650600
520861
687810
415150
916272
886485
689495
595061
511330
288450
190524
27294
85774
880786
309995
661468
612101
859442
212560
994380
922496
638730
880569
551041
841377
668504
411690
443309
848593
945772
707598
85032
726792
607486
66887
279520
696171
132967
543526
838238
